btor2/bv/2019/goel/mul1.btor2.mlir.opt.ll.smt2
;; Produced with Z3_solver_to_string()
(declare-fun sea.sp0_0 () (_ BitVec 64))
(declare-fun main@%_3_0 () (_ BitVec 32))
(declare-fun main@%_5_0 () (_ BitVec 8))
(declare-fun main@%_0_0 () (_ BitVec 8))
(declare-fun main@%_10_0 () (_ BitVec 32))
(declare-fun main@%_12_0 () (_ BitVec 8))
(declare-fun main@%_20_0 () (_ BitVec 8))
(declare-fun main@%_28_0 () (_ BitVec 32))
(declare-fun main@%_30_0 () (_ BitVec 8))
(declare-fun main@%_35_0 () (_ BitVec 32))
(declare-fun main@%_37_0 () (_ BitVec 8))
(declare-fun main@%_46_0 () (_ BitVec 8))
(declare-fun main@%_54_0 () (_ BitVec 32))
(declare-fun main@%_56_0 () (_ BitVec 8))
(declare-fun main@%_61_0 () (_ BitVec 32))
(declare-fun main@%_63_0 () (_ BitVec 8))
(declare-fun main@%_92_0 () (_ BitVec 8))
(declare-fun main@%_100_0 () (_ BitVec 32))
(declare-fun main@%_102_0 () (_ BitVec 8))
(declare-fun main@%_107_0 () (_ BitVec 32))
(declare-fun main@%_109_0 () (_ BitVec 8))
(declare-fun main@%_119_0 () (_ BitVec 8))
(declare-fun main@%_127_0 () (_ BitVec 32))
(declare-fun main@%_129_0 () (_ BitVec 8))
(declare-fun main@%_134_0 () (_ BitVec 32))
(declare-fun main@%_136_0 () (_ BitVec 8))
(declare-fun main@%_146_0 () (_ BitVec 8))
(declare-fun main@%_154_0 () (_ BitVec 32))
(declare-fun main@%_156_0 () (_ BitVec 8))
(declare-fun main@%_161_0 () (_ BitVec 32))
(declare-fun main@%_163_0 () (_ BitVec 8))
(declare-fun main@%_173_0 () (_ BitVec 8))
(declare-fun main@%_181_0 () (_ BitVec 32))
(declare-fun main@%_183_0 () (_ BitVec 8))
(declare-fun main@%_188_0 () (_ BitVec 32))
(declare-fun main@%_190_0 () (_ BitVec 8))
(declare-fun main@%_200_0 () (_ BitVec 8))
(declare-fun main@%_208_0 () (_ BitVec 32))
(declare-fun main@%_210_0 () (_ BitVec 8))
(declare-fun main@%_215_0 () (_ BitVec 32))
(declare-fun main@%_217_0 () (_ BitVec 8))
(declare-fun main@%_227_0 () (_ BitVec 8))
(declare-fun main@%_235_0 () (_ BitVec 32))
(declare-fun main@%_237_0 () (_ BitVec 8))
(declare-fun main@%_242_0 () (_ BitVec 32))
(declare-fun main@%_244_0 () (_ BitVec 8))
(declare-fun main@%_254_0 () (_ BitVec 8))
(declare-fun main@%_262_0 () (_ BitVec 32))
(declare-fun main@%_264_0 () (_ BitVec 8))
(declare-fun main@%_269_0 () (_ BitVec 32))
(declare-fun main@%_271_0 () (_ BitVec 8))
(declare-fun main@%_281_0 () (_ BitVec 8))
(declare-fun main@%_289_0 () (_ BitVec 32))
(declare-fun main@%_291_0 () (_ BitVec 8))
(declare-fun main@%_296_0 () (_ BitVec 32))
(declare-fun main@%_298_0 () (_ BitVec 8))
(declare-fun main@%_308_0 () (_ BitVec 8))
(declare-fun main@%_316_0 () (_ BitVec 32))
(declare-fun main@%_318_0 () (_ BitVec 8))
(declare-fun main@%_323_0 () (_ BitVec 32))
(declare-fun main@%_325_0 () (_ BitVec 8))
(declare-fun main@%_335_0 () (_ BitVec 8))
(declare-fun main@%_343_0 () (_ BitVec 32))
(declare-fun main@%_345_0 () (_ BitVec 8))
(declare-fun main@%_350_0 () (_ BitVec 32))
(declare-fun main@%_352_0 () (_ BitVec 8))
(declare-fun main@%_362_0 () (_ BitVec 8))
(declare-fun main@%_370_0 () (_ BitVec 32))
(declare-fun main@%_372_0 () (_ BitVec 8))
(declare-fun main@%_377_0 () (_ BitVec 32))
(declare-fun main@%_379_0 () (_ BitVec 8))
(declare-fun main@%_389_0 () (_ BitVec 8))
(declare-fun main@%_397_0 () (_ BitVec 32))
(declare-fun main@%_399_0 () (_ BitVec 8))
(declare-fun main@%_404_0 () (_ BitVec 32))
(declare-fun main@%_406_0 () (_ BitVec 8))
(declare-fun main@%_416_0 () (_ BitVec 8))
(declare-fun main@%_424_0 () (_ BitVec 32))
(declare-fun main@%_426_0 () (_ BitVec 8))
(declare-fun main@%_431_0 () (_ BitVec 32))
(declare-fun main@%_433_0 () (_ BitVec 8))
(declare-fun main@%_443_0 () (_ BitVec 8))
(declare-fun main@%_451_0 () (_ BitVec 32))
(declare-fun main@%_453_0 () (_ BitVec 8))
(declare-fun main@%_458_0 () (_ BitVec 32))
(declare-fun main@%_460_0 () (_ BitVec 8))
(declare-fun main@%_470_0 () (_ BitVec 8))
(declare-fun main@%_478_0 () (_ BitVec 32))
(declare-fun main@%_480_0 () (_ BitVec 8))
(declare-fun main@%_485_0 () (_ BitVec 32))
(declare-fun main@%_487_0 () (_ BitVec 8))
(declare-fun main@%_497_0 () (_ BitVec 8))
(declare-fun main@%_505_0 () (_ BitVec 32))
(declare-fun main@%_507_0 () (_ BitVec 8))
(declare-fun main@%_509_0 () (_ BitVec 32))
(declare-fun main@%_511_0 () (_ BitVec 8))
(declare-fun main@%_523_0 () (_ BitVec 8))
(assert (= #b000 ((_ extract 2 0) sea.sp0_0)))
(assert (bvule sea.sp0_0 #x00000000c0000000))
(assert (bvuge sea.sp0_0 #x00000000bf700000))
(assert (let ((a!1 (ite (= ((_ extract 0 0) main@%_0_0) #b1)
                #x00000000
                (ite (= ((_ extract 0 0) main@%_12_0) #b1)
                     main@%_10_0
                     #x00000000)))
      (a!2 (ite (= ((_ extract 0 0) main@%_0_0) #b1)
                #x00000000
                (ite (= ((_ extract 0 0) main@%_5_0) #b1) main@%_3_0 #x00000000)))
      (a!3 (ite (= ((_ extract 0 0) main@%_0_0) #b1)
                true
                (= ((_ extract 0 0) (bvor main@%_12_0 main@%_5_0)) #b1)))
      (a!8 (ite (= ((_ extract 0 0) main@%_20_0) #b1)
                true
                (= ((_ extract 0 0) (bvor main@%_37_0 main@%_30_0)) #b1)))
      (a!13 (ite (= ((_ extract 0 0) main@%_46_0) #b1)
                 true
                 (= ((_ extract 0 0) (bvor main@%_63_0 main@%_56_0)) #b1)))
      (a!18 (ite (= ((_ extract 0 0) main@%_92_0) #b1)
                 true
                 (= ((_ extract 0 0) (bvor main@%_109_0 main@%_102_0)) #b1)))
      (a!23 (ite (= ((_ extract 0 0) main@%_119_0) #b1)
                 true
                 (= ((_ extract 0 0) (bvor main@%_136_0 main@%_129_0)) #b1)))
      (a!28 (ite (= ((_ extract 0 0) main@%_146_0) #b1)
                 true
                 (= ((_ extract 0 0) (bvor main@%_163_0 main@%_156_0)) #b1)))
      (a!33 (ite (= ((_ extract 0 0) main@%_173_0) #b1)
                 true
                 (= ((_ extract 0 0) (bvor main@%_190_0 main@%_183_0)) #b1)))
      (a!38 (ite (= ((_ extract 0 0) main@%_200_0) #b1)
                 true
                 (= ((_ extract 0 0) (bvor main@%_217_0 main@%_210_0)) #b1)))
      (a!43 (ite (= ((_ extract 0 0) main@%_227_0) #b1)
                 true
                 (= ((_ extract 0 0) (bvor main@%_244_0 main@%_237_0)) #b1)))
      (a!48 (ite (= ((_ extract 0 0) main@%_254_0) #b1)
                 true
                 (= ((_ extract 0 0) (bvor main@%_271_0 main@%_264_0)) #b1)))
      (a!53 (ite (= ((_ extract 0 0) main@%_281_0) #b1)
                 true
                 (= ((_ extract 0 0) (bvor main@%_298_0 main@%_291_0)) #b1)))
      (a!58 (ite (= ((_ extract 0 0) main@%_308_0) #b1)
                 true
                 (= ((_ extract 0 0) (bvor main@%_325_0 main@%_318_0)) #b1)))
      (a!63 (ite (= ((_ extract 0 0) main@%_335_0) #b1)
                 true
                 (= ((_ extract 0 0) (bvor main@%_352_0 main@%_345_0)) #b1)))
      (a!68 (ite (= ((_ extract 0 0) main@%_362_0) #b1)
                 true
                 (= ((_ extract 0 0) (bvor main@%_379_0 main@%_372_0)) #b1)))
      (a!73 (ite (= ((_ extract 0 0) main@%_389_0) #b1)
                 true
                 (= ((_ extract 0 0) (bvor main@%_406_0 main@%_399_0)) #b1)))
      (a!78 (ite (= ((_ extract 0 0) main@%_416_0) #b1)
                 true
                 (= ((_ extract 0 0) (bvor main@%_433_0 main@%_426_0)) #b1)))
      (a!83 (ite (= ((_ extract 0 0) main@%_443_0) #b1)
                 true
                 (= ((_ extract 0 0) (bvor main@%_460_0 main@%_453_0)) #b1)))
      (a!88 (ite (= ((_ extract 0 0) main@%_470_0) #b1)
                 true
                 (= ((_ extract 0 0) (bvor main@%_487_0 main@%_480_0)) #b1)))
      (a!94 (ite (= ((_ extract 0 0) main@%_497_0) #b1)
                 true
                 (= ((_ extract 0 0) (bvor main@%_511_0 main@%_507_0)) #b1))))
(let ((a!4 (ite (= ((_ extract 0 0) main@%_20_0) #b1)
                #x0000000000000000
                (ite a!3
                     (bvmul ((_ zero_extend 32) a!1) ((_ zero_extend 32) a!2))
                     #x0000000000000000)))
      (a!6 (ite (= ((_ extract 0 0) main@%_20_0) #b1)
                #x00000000
                (ite (= ((_ extract 0 0) main@%_37_0) #b1) main@%_35_0 a!1)))
      (a!7 (ite (= ((_ extract 0 0) main@%_20_0) #b1)
                #x00000000
                (ite (= ((_ extract 0 0) main@%_30_0) #b1) main@%_28_0 a!2))))
(let ((a!5 (= (ite (= ((_ extract 0 0) main@%_20_0) #b1)
                   #x0000000000000000
                   (bvmul ((_ zero_extend 32) a!1) ((_ zero_extend 32) a!2)))
              a!4))
      (a!9 (ite (= ((_ extract 0 0) main@%_46_0) #b1)
                #x0000000000000000
                (ite a!8
                     (bvmul ((_ zero_extend 32) a!6) ((_ zero_extend 32) a!7))
                     a!4)))
      (a!11 (ite (= ((_ extract 0 0) main@%_46_0) #b1)
                 #x00000000
                 (ite (= ((_ extract 0 0) main@%_63_0) #b1) main@%_61_0 a!6)))
      (a!12 (ite (= ((_ extract 0 0) main@%_46_0) #b1)
                 #x00000000
                 (ite (= ((_ extract 0 0) main@%_56_0) #b1) main@%_54_0 a!7))))
(let ((a!10 (= (ite (= ((_ extract 0 0) main@%_46_0) #b1)
                    #x0000000000000000
                    (bvmul ((_ zero_extend 32) a!6) ((_ zero_extend 32) a!7)))
               a!9))
      (a!14 (ite (= ((_ extract 0 0) main@%_92_0) #b1)
                 #x0000000000000000
                 (ite a!13
                      (bvmul ((_ zero_extend 32) a!11)
                             ((_ zero_extend 32) a!12))
                      a!9)))
      (a!16 (ite (= ((_ extract 0 0) main@%_92_0) #b1)
                 #x00000000
                 (ite (= ((_ extract 0 0) main@%_109_0) #b1) main@%_107_0 a!11)))
      (a!17 (ite (= ((_ extract 0 0) main@%_92_0) #b1)
                 #x00000000
                 (ite (= ((_ extract 0 0) main@%_102_0) #b1) main@%_100_0 a!12))))
(let ((a!15 (= (ite (= ((_ extract 0 0) main@%_92_0) #b1)
                    #x0000000000000000
                    (bvmul ((_ zero_extend 32) a!11) ((_ zero_extend 32) a!12)))
               a!14))
      (a!19 (ite (= ((_ extract 0 0) main@%_119_0) #b1)
                 #x0000000000000000
                 (ite a!18
                      (bvmul ((_ zero_extend 32) a!16)
                             ((_ zero_extend 32) a!17))
                      a!14)))
      (a!21 (ite (= ((_ extract 0 0) main@%_119_0) #b1)
                 #x00000000
                 (ite (= ((_ extract 0 0) main@%_136_0) #b1) main@%_134_0 a!16)))
      (a!22 (ite (= ((_ extract 0 0) main@%_119_0) #b1)
                 #x00000000
                 (ite (= ((_ extract 0 0) main@%_129_0) #b1) main@%_127_0 a!17))))
(let ((a!20 (= (ite (= ((_ extract 0 0) main@%_119_0) #b1)
                    #x0000000000000000
                    (bvmul ((_ zero_extend 32) a!16) ((_ zero_extend 32) a!17)))
               a!19))
      (a!24 (ite (= ((_ extract 0 0) main@%_146_0) #b1)
                 #x0000000000000000
                 (ite a!23
                      (bvmul ((_ zero_extend 32) a!21)
                             ((_ zero_extend 32) a!22))
                      a!19)))
      (a!26 (ite (= ((_ extract 0 0) main@%_146_0) #b1)
                 #x00000000
                 (ite (= ((_ extract 0 0) main@%_163_0) #b1) main@%_161_0 a!21)))
      (a!27 (ite (= ((_ extract 0 0) main@%_146_0) #b1)
                 #x00000000
                 (ite (= ((_ extract 0 0) main@%_156_0) #b1) main@%_154_0 a!22))))
(let ((a!25 (= (ite (= ((_ extract 0 0) main@%_146_0) #b1)
                    #x0000000000000000
                    (bvmul ((_ zero_extend 32) a!21) ((_ zero_extend 32) a!22)))
               a!24))
      (a!29 (ite (= ((_ extract 0 0) main@%_173_0) #b1)
                 #x0000000000000000
                 (ite a!28
                      (bvmul ((_ zero_extend 32) a!26)
                             ((_ zero_extend 32) a!27))
                      a!24)))
      (a!31 (ite (= ((_ extract 0 0) main@%_173_0) #b1)
                 #x00000000
                 (ite (= ((_ extract 0 0) main@%_190_0) #b1) main@%_188_0 a!26)))
      (a!32 (ite (= ((_ extract 0 0) main@%_173_0) #b1)
                 #x00000000
                 (ite (= ((_ extract 0 0) main@%_183_0) #b1) main@%_181_0 a!27))))
(let ((a!30 (= (ite (= ((_ extract 0 0) main@%_173_0) #b1)
                    #x0000000000000000
                    (bvmul ((_ zero_extend 32) a!26) ((_ zero_extend 32) a!27)))
               a!29))
      (a!34 (ite (= ((_ extract 0 0) main@%_200_0) #b1)
                 #x0000000000000000
                 (ite a!33
                      (bvmul ((_ zero_extend 32) a!31)
                             ((_ zero_extend 32) a!32))
                      a!29)))
      (a!36 (ite (= ((_ extract 0 0) main@%_200_0) #b1)
                 #x00000000
                 (ite (= ((_ extract 0 0) main@%_217_0) #b1) main@%_215_0 a!31)))
      (a!37 (ite (= ((_ extract 0 0) main@%_200_0) #b1)
                 #x00000000
                 (ite (= ((_ extract 0 0) main@%_210_0) #b1) main@%_208_0 a!32))))
(let ((a!35 (= (ite (= ((_ extract 0 0) main@%_200_0) #b1)
                    #x0000000000000000
                    (bvmul ((_ zero_extend 32) a!31) ((_ zero_extend 32) a!32)))
               a!34))
      (a!39 (ite (= ((_ extract 0 0) main@%_227_0) #b1)
                 #x0000000000000000
                 (ite a!38
                      (bvmul ((_ zero_extend 32) a!36)
                             ((_ zero_extend 32) a!37))
                      a!34)))
      (a!41 (ite (= ((_ extract 0 0) main@%_227_0) #b1)
                 #x00000000
                 (ite (= ((_ extract 0 0) main@%_244_0) #b1) main@%_242_0 a!36)))
      (a!42 (ite (= ((_ extract 0 0) main@%_227_0) #b1)
                 #x00000000
                 (ite (= ((_ extract 0 0) main@%_237_0) #b1) main@%_235_0 a!37))))
(let ((a!40 (= (ite (= ((_ extract 0 0) main@%_227_0) #b1)
                    #x0000000000000000
                    (bvmul ((_ zero_extend 32) a!36) ((_ zero_extend 32) a!37)))
               a!39))
      (a!44 (ite (= ((_ extract 0 0) main@%_254_0) #b1)
                 #x0000000000000000
                 (ite a!43
                      (bvmul ((_ zero_extend 32) a!41)
                             ((_ zero_extend 32) a!42))
                      a!39)))
      (a!46 (ite (= ((_ extract 0 0) main@%_254_0) #b1)
                 #x00000000
                 (ite (= ((_ extract 0 0) main@%_271_0) #b1) main@%_269_0 a!41)))
      (a!47 (ite (= ((_ extract 0 0) main@%_254_0) #b1)
                 #x00000000
                 (ite (= ((_ extract 0 0) main@%_264_0) #b1) main@%_262_0 a!42))))
(let ((a!45 (= (ite (= ((_ extract 0 0) main@%_254_0) #b1)
                    #x0000000000000000
                    (bvmul ((_ zero_extend 32) a!41) ((_ zero_extend 32) a!42)))
               a!44))
      (a!49 (ite (= ((_ extract 0 0) main@%_281_0) #b1)
                 #x0000000000000000
                 (ite a!48
                      (bvmul ((_ zero_extend 32) a!46)
                             ((_ zero_extend 32) a!47))
                      a!44)))
      (a!51 (ite (= ((_ extract 0 0) main@%_281_0) #b1)
                 #x00000000
                 (ite (= ((_ extract 0 0) main@%_298_0) #b1) main@%_296_0 a!46)))
      (a!52 (ite (= ((_ extract 0 0) main@%_281_0) #b1)
                 #x00000000
                 (ite (= ((_ extract 0 0) main@%_291_0) #b1) main@%_289_0 a!47))))
(let ((a!50 (= (ite (= ((_ extract 0 0) main@%_281_0) #b1)
                    #x0000000000000000
                    (bvmul ((_ zero_extend 32) a!46) ((_ zero_extend 32) a!47)))
               a!49))
      (a!54 (ite (= ((_ extract 0 0) main@%_308_0) #b1)
                 #x0000000000000000
                 (ite a!53
                      (bvmul ((_ zero_extend 32) a!51)
                             ((_ zero_extend 32) a!52))
                      a!49)))
      (a!56 (ite (= ((_ extract 0 0) main@%_308_0) #b1)
                 #x00000000
                 (ite (= ((_ extract 0 0) main@%_325_0) #b1) main@%_323_0 a!51)))
      (a!57 (ite (= ((_ extract 0 0) main@%_308_0) #b1)
                 #x00000000
                 (ite (= ((_ extract 0 0) main@%_318_0) #b1) main@%_316_0 a!52))))
(let ((a!55 (= (ite (= ((_ extract 0 0) main@%_308_0) #b1)
                    #x0000000000000000
                    (bvmul ((_ zero_extend 32) a!51) ((_ zero_extend 32) a!52)))
               a!54))
      (a!59 (ite (= ((_ extract 0 0) main@%_335_0) #b1)
                 #x0000000000000000
                 (ite a!58
                      (bvmul ((_ zero_extend 32) a!56)
                             ((_ zero_extend 32) a!57))
                      a!54)))
      (a!61 (ite (= ((_ extract 0 0) main@%_335_0) #b1)
                 #x00000000
                 (ite (= ((_ extract 0 0) main@%_352_0) #b1) main@%_350_0 a!56)))
      (a!62 (ite (= ((_ extract 0 0) main@%_335_0) #b1)
                 #x00000000
                 (ite (= ((_ extract 0 0) main@%_345_0) #b1) main@%_343_0 a!57))))
(let ((a!60 (= (ite (= ((_ extract 0 0) main@%_335_0) #b1)
                    #x0000000000000000
                    (bvmul ((_ zero_extend 32) a!56) ((_ zero_extend 32) a!57)))
               a!59))
      (a!64 (ite (= ((_ extract 0 0) main@%_362_0) #b1)
                 #x0000000000000000
                 (ite a!63
                      (bvmul ((_ zero_extend 32) a!61)
                             ((_ zero_extend 32) a!62))
                      a!59)))
      (a!66 (ite (= ((_ extract 0 0) main@%_362_0) #b1)
                 #x00000000
                 (ite (= ((_ extract 0 0) main@%_379_0) #b1) main@%_377_0 a!61)))
      (a!67 (ite (= ((_ extract 0 0) main@%_362_0) #b1)
                 #x00000000
                 (ite (= ((_ extract 0 0) main@%_372_0) #b1) main@%_370_0 a!62))))
(let ((a!65 (= (ite (= ((_ extract 0 0) main@%_362_0) #b1)
                    #x0000000000000000
                    (bvmul ((_ zero_extend 32) a!61) ((_ zero_extend 32) a!62)))
               a!64))
      (a!69 (ite (= ((_ extract 0 0) main@%_389_0) #b1)
                 #x0000000000000000
                 (ite a!68
                      (bvmul ((_ zero_extend 32) a!66)
                             ((_ zero_extend 32) a!67))
                      a!64)))
      (a!71 (ite (= ((_ extract 0 0) main@%_389_0) #b1)
                 #x00000000
                 (ite (= ((_ extract 0 0) main@%_406_0) #b1) main@%_404_0 a!66)))
      (a!72 (ite (= ((_ extract 0 0) main@%_389_0) #b1)
                 #x00000000
                 (ite (= ((_ extract 0 0) main@%_399_0) #b1) main@%_397_0 a!67))))
(let ((a!70 (= (ite (= ((_ extract 0 0) main@%_389_0) #b1)
                    #x0000000000000000
                    (bvmul ((_ zero_extend 32) a!66) ((_ zero_extend 32) a!67)))
               a!69))
      (a!74 (ite (= ((_ extract 0 0) main@%_416_0) #b1)
                 #x0000000000000000
                 (ite a!73
                      (bvmul ((_ zero_extend 32) a!71)
                             ((_ zero_extend 32) a!72))
                      a!69)))
      (a!76 (ite (= ((_ extract 0 0) main@%_416_0) #b1)
                 #x00000000
                 (ite (= ((_ extract 0 0) main@%_433_0) #b1) main@%_431_0 a!71)))
      (a!77 (ite (= ((_ extract 0 0) main@%_416_0) #b1)
                 #x00000000
                 (ite (= ((_ extract 0 0) main@%_426_0) #b1) main@%_424_0 a!72))))
(let ((a!75 (= (ite (= ((_ extract 0 0) main@%_416_0) #b1)
                    #x0000000000000000
                    (bvmul ((_ zero_extend 32) a!71) ((_ zero_extend 32) a!72)))
               a!74))
      (a!79 (ite (= ((_ extract 0 0) main@%_443_0) #b1)
                 #x0000000000000000
                 (ite a!78
                      (bvmul ((_ zero_extend 32) a!76)
                             ((_ zero_extend 32) a!77))
                      a!74)))
      (a!81 (ite (= ((_ extract 0 0) main@%_443_0) #b1)
                 #x00000000
                 (ite (= ((_ extract 0 0) main@%_460_0) #b1) main@%_458_0 a!76)))
      (a!82 (ite (= ((_ extract 0 0) main@%_443_0) #b1)
                 #x00000000
                 (ite (= ((_ extract 0 0) main@%_453_0) #b1) main@%_451_0 a!77))))
(let ((a!80 (= (ite (= ((_ extract 0 0) main@%_443_0) #b1)
                    #x0000000000000000
                    (bvmul ((_ zero_extend 32) a!76) ((_ zero_extend 32) a!77)))
               a!79))
      (a!84 (ite (= ((_ extract 0 0) main@%_470_0) #b1)
                 #x0000000000000000
                 (ite a!83
                      (bvmul ((_ zero_extend 32) a!81)
                             ((_ zero_extend 32) a!82))
                      a!79)))
      (a!86 (ite (= ((_ extract 0 0) main@%_470_0) #b1)
                 #x00000000
                 (ite (= ((_ extract 0 0) main@%_487_0) #b1) main@%_485_0 a!81)))
      (a!87 (ite (= ((_ extract 0 0) main@%_470_0) #b1)
                 #x00000000
                 (ite (= ((_ extract 0 0) main@%_480_0) #b1) main@%_478_0 a!82))))
(let ((a!85 (= (ite (= ((_ extract 0 0) main@%_470_0) #b1)
                    #x0000000000000000
                    (bvmul ((_ zero_extend 32) a!81) ((_ zero_extend 32) a!82)))
               a!84))
      (a!89 (ite (= ((_ extract 0 0) main@%_497_0) #b1)
                 #x0000000000000000
                 (ite a!88
                      (bvmul ((_ zero_extend 32) a!86)
                             ((_ zero_extend 32) a!87))
                      a!84)))
      (a!91 ((_ zero_extend 32)
              (ite (= ((_ extract 0 0) main@%_511_0) #b1) main@%_509_0 a!86)))
      (a!92 ((_ zero_extend 32)
              (ite (= ((_ extract 0 0) main@%_507_0) #b1) main@%_505_0 a!87))))
(let ((a!90 (= (ite (= ((_ extract 0 0) main@%_497_0) #b1)
                    #x0000000000000000
                    (bvmul ((_ zero_extend 32) a!86) ((_ zero_extend 32) a!87)))
               a!89))
      (a!93 (ite (= ((_ extract 0 0) main@%_523_0) #b1)
                 #x0000000000000000
                 (ite (= ((_ extract 0 0) main@%_497_0) #b1)
                      #x0000000000000000
                      (bvmul a!91 a!92))))
      (a!95 (ite a!94
                 (ite (= ((_ extract 0 0) main@%_497_0) #b1)
                      #x0000000000000000
                      (bvmul a!91 a!92))
                 a!89)))
(let ((a!96 (= a!93
               (ite (= ((_ extract 0 0) main@%_523_0) #b1)
                    #x0000000000000000
                    a!95))))
(let ((a!97 (ite a!85 (ite a!90 (and true (xor a!96 true)) true) true)))
(let ((a!98 (ite a!65 (ite a!70 (ite a!75 (ite a!80 a!97 true) true) true) true)))
(let ((a!99 (ite a!45 (ite a!50 (ite a!55 (ite a!60 a!98 true) true) true) true)))
(let ((a!100 (ite a!25
                  (ite a!30 (ite a!35 (ite a!40 a!99 true) true) true)
                  true)))
  (ite a!5 (ite a!10 (ite a!15 (ite a!20 a!100 true) true) true) true)))))))))))))))))))))))))))

(check-sat)
